pair_style      lj/coul
pair_modify     mix geometric
bond_style      harmonic
angle_style     harmonic
dihedral_style  opls
improper_style  umbrella
